n_res = 4;
rcap = [15, 14, 100, 91];
rtype = [1, 1, 2, 2];
n_tasks = 16;
modes = [ {1, 2}, {3, 4}, {5, 6}, {7, 8}, {9, 10}, {11, 12}, {13, 14}, {15, 16}, {17, 18}, {19, 20}, {21, 22}, {23, 24}, {25, 26}, {27, 28}, {29, 30}, {31, 32} ];
succ = [ {4}, {9, 12, 14}, {8}, {5, 6, 7}, {8, 9, 11}, {8, 9, 11}, {14, 15}, {10, 12}, {10}, {13, 16}, {13, 14, 16}, {13, 16}, {15}, {}, {}, {} ];
n_opt = 32;
dur = [7, 7, 6, 9, 5, 5, 2, 9, 3, 3, 2, 8, 10, 10, 1, 10, 2, 9, 6, 10, 1, 7, 3, 7, 6, 10, 1, 7, 4, 8, 4, 9];
rreq = [|  2,  1,  7,  5,  8,  3,  6,  2,  6,  7,  6,  5,  4,  9,  6,  4,  9,  9,  9,  9,  7,  6,  5,  4,  5,  4,  8,  8, 10,  8,  4,  2
        |  6,  7,  9,  7,  6,  9, 10, 10,  8,  4, 10, 10,  3,  2,  8,  6,  4,  2, 10, 10,  7,  5,  8,  6,  5,  4,  8,  7,  6,  6,  8,  6
        |  3,  5,  7,  7,  7,  7,  4,  3,  2,  1,  7,  7,  8,  2, 10,  4,  6,  3,  7,  2,  9,  9,  8,  4,  4,  4,  7,  5,  9,  9,  8,  7
        |  8,  3,  8,  7,  8,  9,  2,  1,  1,  2,  4,  4,  9,  6,  6,  1,  6,  5,  8,  3,  5,  4,  7,  6,  7,  6,  7,  4,  5,  3,  6,  6 |];
